************************************************************************
file with basedata            : mm6_.bas
initial value random generator: 21996
************************************************************************
projects                      :  1
jobs (incl. supersource/sink ):  12
horizon                       :  83
RESOURCES
  - renewable                 :  2   R
  - nonrenewable              :  2   N
  - doubly constrained        :  0   D
************************************************************************
PROJECT INFORMATION:
pronr.  #jobs rel.date duedate tardcost  MPM-Time
    1     10      0       16        2       16
************************************************************************
PRECEDENCE RELATIONS:
jobnr.    #modes  #successors   successors
   1        1          3           2   3   4
   2        3          1           9
   3        3          3           5   6   8
   4        3          2           7   8
   5        3          1          11
   6        3          1           7
   7        3          3           9  10  11
   8        3          1          10
   9        3          1          12
  10        3          1          12
  11        3          1          12
  12        1          0        
************************************************************************
REQUESTS/DURATIONS:
jobnr. mode duration  R 1  R 2  N 1  N 2
------------------------------------------------------------------------
  1      1     0       0    0    0    0
  2      1     4       9    0    5    9
         2     6       0    5    4    9
         3     9       2    0    4    8
  3      1     1       3    0    9    1
         2     5       0    8    6    1
         3    10       0    3    6    1
  4      1     3       0    3    3    6
         2     4       5    0    3    6
         3     7       3    0    3    6
  5      1     1       0    9   10    6
         2     3       0    7    9    6
         3     3       0    7   10    2
  6      1     3       2    0    6   10
         2     4       2    0    3    9
         3     9       0    7    1    8
  7      1     4       0    4    5    3
         2     4       8    0    5    3
         3     7       7    0    4    3
  8      1     1       0    9    8    7
         2     4       3    0    8    4
         3    10       0    5    8    3
  9      1     1       5    0    8    9
         2     6       4    0    7    7
         3     9       3    0    5    7
 10      1     2       3    0    6    5
         2     9       0    5    4    4
         3    10       0    3    3    4
 11      1     8       6    0    8    7
         2     9       0    3    7    5
         3     9       5    0    8    4
 12      1     0       0    0    0    0
************************************************************************
RESOURCEAVAILABILITIES:
  R 1  R 2  N 1  N 2
    6   12   59   55
************************************************************************
